100 100 100
50
58 44 90
69 40 26
25 2 54
60 56 99
35 4 62
14 95 85
92 85 98
89 21 13
54 21 90
96 43 37
55 22 3
24 2 84
91 5 72
52 27 28
78 97 62
70 89 74
35 47 38
93 92 26
78 34 68
4 65 31
28 63 10
34 6 94
83 13 62
94 87 87
26 23 71
53 90 33
53 34 21
54 40 44
28 76 20
93 93 73
41 65 40
7 44 75
9 55 26
12 17 17
38 13 47
61 42 11
43 94 14
48 55 17
41 82 46
6 12 49
7 14 29
60 34 36
97 76 38
1 62 91
3 71 49
4 30 99
4 92 100
47 56 57
96 15 21
76 66 5
